\Problem name: compact

Minimize
OBJROW: C
Subject To
ord(0,1):  - x(0,0) + x(0,1) >= 9
ord(0,2):  - x(0,1) + x(0,3) >= 10
ord(0,3):  x(0,2) - x(0,3) >= 7
ord(1,1):  x(1,0) - x(1,2) >= 9
ord(1,2):  - x(1,0) + x(1,3) >= 4
ord(1,3):  x(1,1) - x(1,3) >= 5
ord(2,1):  - x(2,0) + x(2,1) >= 10
ord(2,2):  - x(2,1) + x(2,2) >= 3
ord(2,3):  - x(2,2) + x(2,3) >= 7
ord(3,1):  - x(3,1) + x(3,2) >= 7
ord(3,2):  - x(3,2) + x(3,3) >= 1
ord(3,3):  x(3,0) - x(3,3) >= 4
triangle2(0,1,0):  y(0,1,0) + y(1,0,0) = 1
triangle2(0,1,1):  y(0,1,1) + y(1,0,1) = 1
triangle2(0,1,2):  y(0,1,2) + y(1,0,2) = 1
triangle2(0,1,3):  y(0,1,3) + y(1,0,3) = 1
triangle2(0,2,0):  y(0,2,0) + y(2,0,0) = 1
triangle2(0,2,1):  y(0,2,1) + y(2,0,1) = 1
triangle2(0,2,2):  y(0,2,2) + y(2,0,2) = 1
triangle2(0,2,3):  y(0,2,3) + y(2,0,3) = 1
triangle2(0,3,0):  y(0,3,0) + y(3,0,0) = 1
triangle2(0,3,1):  y(0,3,1) + y(3,0,1) = 1
triangle2(0,3,2):  y(0,3,2) + y(3,0,2) = 1
triangle2(0,3,3):  y(0,3,3) + y(3,0,3) = 1
triangle2(1,2,0):  y(1,2,0) + y(2,1,0) = 1
triangle2(1,2,1):  y(1,2,1) + y(2,1,1) = 1
triangle2(1,2,2):  y(1,2,2) + y(2,1,2) = 1
triangle2(1,2,3):  y(1,2,3) + y(2,1,3) = 1
triangle2(1,3,0):  y(1,3,0) + y(3,1,0) = 1
triangle2(1,3,1):  y(1,3,1) + y(3,1,1) = 1
triangle2(1,3,2):  y(1,3,2) + y(3,1,2) = 1
triangle2(1,3,3):  y(1,3,3) + y(3,1,3) = 1
triangle2(2,3,0):  y(2,3,0) + y(3,2,0) = 1
triangle2(2,3,1):  y(2,3,1) + y(3,2,1) = 1
triangle2(2,3,2):  y(2,3,2) + y(3,2,2) = 1
triangle2(2,3,3):  y(2,3,3) + y(3,2,3) = 1
MCLinV(0,1,0):  x(0,0) - v(0,1,0) - x(1,0) = 4
MCLinV(1,0,0):  - x(0,0) - v(1,0,0) + x(1,0) = 9
MCLin1(0,1,0):  u(0,1,0) >= -0
MCLin2(0,1,0):  -89 y(1,0,0) - u(0,1,0) <= -0
MCLin3(0,1,0):  54 y(1,0,0) + v(0,1,0) - u(0,1,0) <= 54
MCLin4(0,1,0):  54 y(1,0,0) - u(0,1,0) >= -0
MCLin5(0,1,0):  -89 y(1,0,0) + v(0,1,0) - u(0,1,0) >= -89
MCLin6(1,0,0):  u(1,0,0) >= -0
MCLin7(1,0,0):  -67 y(0,1,0) - u(1,0,0) <= -0
MCLin8(1,0,0):  76 y(0,1,0) + v(1,0,0) - u(1,0,0) <= 76
MCLin9(1,0,0):  76 y(0,1,0) - u(1,0,0) >= -0
MCLin10(1,0,0):  -67 y(0,1,0) + v(1,0,0) - u(1,0,0) >= -67
MCLinV(0,1,1):  x(0,1) - v(0,1,1) - x(1,1) = 9
MCLinV(1,0,1):  - x(0,1) - v(1,0,1) + x(1,1) = 10
MCLin1(0,1,1):  u(0,1,1) >= -0
MCLin2(0,1,1):  -94 y(1,0,1) - u(0,1,1) <= -0
MCLin3(0,1,1):  49 y(1,0,1) + v(0,1,1) - u(0,1,1) <= 49
MCLin4(0,1,1):  49 y(1,0,1) - u(0,1,1) >= -0
MCLin5(0,1,1):  -94 y(1,0,1) + v(0,1,1) - u(0,1,1) >= -94
MCLin6(1,0,1):  u(1,0,1) >= -0
MCLin7(1,0,1):  -68 y(0,1,1) - u(1,0,1) <= -0
MCLin8(1,0,1):  75 y(0,1,1) + v(1,0,1) - u(1,0,1) <= 75
MCLin9(1,0,1):  75 y(0,1,1) - u(1,0,1) >= -0
MCLin10(1,0,1):  -68 y(0,1,1) + v(1,0,1) - u(1,0,1) >= -68
MCLinV(0,1,2):  x(0,2) - v(0,1,2) - x(1,2) = 9
MCLinV(1,0,2):  - x(0,2) - v(1,0,2) + x(1,2) = 10
MCLin1(0,1,2):  u(0,1,2) >= -0
MCLin2(0,1,2):  -59 y(1,0,2) - u(0,1,2) <= -0
MCLin3(0,1,2):  84 y(1,0,2) + v(0,1,2) - u(0,1,2) <= 84
MCLin4(0,1,2):  84 y(1,0,2) - u(0,1,2) >= -0
MCLin5(0,1,2):  -59 y(1,0,2) + v(0,1,2) - u(0,1,2) >= -59
MCLin6(1,0,2):  u(1,0,2) >= -0
MCLin7(1,0,2):  -103 y(0,1,2) - u(1,0,2) <= -0
MCLin8(1,0,2):  40 y(0,1,2) + v(1,0,2) - u(1,0,2) <= 40
MCLin9(1,0,2):  40 y(0,1,2) - u(1,0,2) >= -0
MCLin10(1,0,2):  -103 y(0,1,2) + v(1,0,2) - u(1,0,2) >= -103
MCLinV(0,1,3):  x(0,3) - v(0,1,3) - x(1,3) = 5
MCLinV(1,0,3):  - x(0,3) - v(1,0,3) + x(1,3) = 7
MCLin1(0,1,3):  u(0,1,3) >= -0
MCLin2(0,1,3):  -75 y(1,0,3) - u(0,1,3) <= -0
MCLin3(0,1,3):  68 y(1,0,3) + v(0,1,3) - u(0,1,3) <= 68
MCLin4(0,1,3):  68 y(1,0,3) - u(0,1,3) >= -0
MCLin5(0,1,3):  -75 y(1,0,3) + v(0,1,3) - u(0,1,3) >= -75
MCLin6(1,0,3):  u(1,0,3) >= -0
MCLin7(1,0,3):  -80 y(0,1,3) - u(1,0,3) <= -0
MCLin8(1,0,3):  63 y(0,1,3) + v(1,0,3) - u(1,0,3) <= 63
MCLin9(1,0,3):  63 y(0,1,3) - u(1,0,3) >= -0
MCLin10(1,0,3):  -80 y(0,1,3) + v(1,0,3) - u(1,0,3) >= -80
MCLinV(0,2,0):  x(0,0) - v(0,2,0) - x(2,0) = 10
MCLinV(2,0,0):  - x(0,0) - v(2,0,0) + x(2,0) = 9
MCLin1(0,2,0):  u(0,2,0) >= -0
MCLin2(0,2,0):  -86 y(2,0,0) - u(0,2,0) <= -0
MCLin3(0,2,0):  57 y(2,0,0) + v(0,2,0) - u(0,2,0) <= 57
MCLin4(0,2,0):  57 y(2,0,0) - u(0,2,0) >= -0
MCLin5(0,2,0):  -86 y(2,0,0) + v(0,2,0) - u(0,2,0) >= -86
MCLin6(2,0,0):  u(2,0,0) >= -0
MCLin7(2,0,0):  -76 y(0,2,0) - u(2,0,0) <= -0
MCLin8(2,0,0):  67 y(0,2,0) + v(2,0,0) - u(2,0,0) <= 67
MCLin9(2,0,0):  67 y(0,2,0) - u(2,0,0) >= -0
MCLin10(2,0,0):  -76 y(0,2,0) + v(2,0,0) - u(2,0,0) >= -76
MCLinV(0,2,1):  x(0,1) - v(0,2,1) - x(2,1) = 3
MCLinV(2,0,1):  - x(0,1) - v(2,0,1) + x(2,1) = 10
MCLin1(0,2,1):  u(0,2,1) >= -0
MCLin2(0,2,1):  -80 y(2,0,1) - u(0,2,1) <= -0
MCLin3(0,2,1):  63 y(2,0,1) + v(0,2,1) - u(0,2,1) <= 63
MCLin4(0,2,1):  63 y(2,0,1) - u(0,2,1) >= -0
MCLin5(0,2,1):  -80 y(2,0,1) + v(0,2,1) - u(0,2,1) >= -80
MCLin6(2,0,1):  u(2,0,1) >= -0
MCLin7(2,0,1):  -76 y(0,2,1) - u(2,0,1) <= -0
MCLin8(2,0,1):  67 y(0,2,1) + v(2,0,1) - u(2,0,1) <= 67
MCLin9(2,0,1):  67 y(0,2,1) - u(2,0,1) >= -0
MCLin10(2,0,1):  -76 y(0,2,1) + v(2,0,1) - u(2,0,1) >= -76
MCLinV(0,2,2):  x(0,2) - v(0,2,2) - x(2,2) = 7
MCLinV(2,0,2):  - x(0,2) - v(2,0,2) + x(2,2) = 10
MCLin1(0,2,2):  u(0,2,2) >= -0
MCLin2(0,2,2):  -70 y(2,0,2) - u(0,2,2) <= -0
MCLin3(0,2,2):  73 y(2,0,2) + v(0,2,2) - u(0,2,2) <= 73
MCLin4(0,2,2):  73 y(2,0,2) - u(0,2,2) >= -0
MCLin5(0,2,2):  -70 y(2,0,2) + v(0,2,2) - u(0,2,2) >= -70
MCLin6(2,0,2):  u(2,0,2) >= -0
MCLin7(2,0,2):  -90 y(0,2,2) - u(2,0,2) <= -0
MCLin8(2,0,2):  53 y(0,2,2) + v(2,0,2) - u(2,0,2) <= 53
MCLin9(2,0,2):  53 y(0,2,2) - u(2,0,2) >= -0
MCLin10(2,0,2):  -90 y(0,2,2) + v(2,0,2) - u(2,0,2) >= -90
MCLinV(0,2,3):  x(0,3) - v(0,2,3) - x(2,3) = 7
MCLinV(2,0,3):  - x(0,3) - v(2,0,3) + x(2,3) = 7
MCLin1(0,2,3):  u(0,2,3) >= -0
MCLin2(0,2,3):  -84 y(2,0,3) - u(0,2,3) <= -0
MCLin3(0,2,3):  59 y(2,0,3) + v(0,2,3) - u(0,2,3) <= 59
MCLin4(0,2,3):  59 y(2,0,3) - u(0,2,3) >= -0
MCLin5(0,2,3):  -84 y(2,0,3) + v(0,2,3) - u(0,2,3) >= -84
MCLin6(2,0,3):  u(2,0,3) >= -0
MCLin7(2,0,3):  -73 y(0,2,3) - u(2,0,3) <= -0
MCLin8(2,0,3):  70 y(0,2,3) + v(2,0,3) - u(2,0,3) <= 70
MCLin9(2,0,3):  70 y(0,2,3) - u(2,0,3) >= -0
MCLin10(2,0,3):  -73 y(0,2,3) + v(2,0,3) - u(2,0,3) >= -73
MCLinV(0,3,0):  x(0,0) - v(0,3,0) - x(3,0) = 1
MCLinV(3,0,0):  - x(0,0) - v(3,0,0) + x(3,0) = 9
MCLin1(0,3,0):  u(0,3,0) >= -0
MCLin2(0,3,0):  -103 y(3,0,0) - u(0,3,0) <= -0
MCLin3(0,3,0):  54 y(3,0,0) + v(0,3,0) - u(0,3,0) <= 54
MCLin4(0,3,0):  54 y(3,0,0) - u(0,3,0) >= -0
MCLin5(0,3,0):  -103 y(3,0,0) + v(0,3,0) - u(0,3,0) >= -103
MCLin6(3,0,0):  u(3,0,0) >= -0
MCLin7(3,0,0):  -64 y(0,3,0) - u(3,0,0) <= -0
MCLin8(3,0,0):  93 y(0,3,0) + v(3,0,0) - u(3,0,0) <= 93
MCLin9(3,0,0):  93 y(0,3,0) - u(3,0,0) >= -0
MCLin10(3,0,0):  -64 y(0,3,0) + v(3,0,0) - u(3,0,0) >= -64
MCLinV(0,3,1):  x(0,1) - v(0,3,1) - x(3,1) = 7
MCLinV(3,0,1):  - x(0,1) - v(3,0,1) + x(3,1) = 10
MCLin1(0,3,1):  u(0,3,1) >= -0
MCLin2(0,3,1):  -88 y(3,0,1) - u(0,3,1) <= -0
MCLin3(0,3,1):  69 y(3,0,1) + v(0,3,1) - u(0,3,1) <= 69
MCLin4(0,3,1):  69 y(3,0,1) - u(0,3,1) >= -0
MCLin5(0,3,1):  -88 y(3,0,1) + v(0,3,1) - u(0,3,1) >= -88
MCLin6(3,0,1):  u(3,0,1) >= -0
MCLin7(3,0,1):  -86 y(0,3,1) - u(3,0,1) <= -0
MCLin8(3,0,1):  71 y(0,3,1) + v(3,0,1) - u(3,0,1) <= 71
MCLin9(3,0,1):  71 y(0,3,1) - u(3,0,1) >= -0
MCLin10(3,0,1):  -86 y(0,3,1) + v(3,0,1) - u(3,0,1) >= -86
MCLinV(0,3,2):  x(0,2) - v(0,3,2) - x(3,2) = 1
MCLinV(3,0,2):  - x(0,2) - v(3,0,2) + x(3,2) = 10
MCLin1(0,3,2):  u(0,3,2) >= -0
MCLin2(0,3,2):  -72 y(3,0,2) - u(0,3,2) <= -0
MCLin3(0,3,2):  85 y(3,0,2) + v(0,3,2) - u(0,3,2) <= 85
MCLin4(0,3,2):  85 y(3,0,2) - u(0,3,2) >= -0
MCLin5(0,3,2):  -72 y(3,0,2) + v(0,3,2) - u(0,3,2) >= -72
MCLin6(3,0,2):  u(3,0,2) >= -0
MCLin7(3,0,2):  -96 y(0,3,2) - u(3,0,2) <= -0
MCLin8(3,0,2):  61 y(0,3,2) + v(3,0,2) - u(3,0,2) <= 61
MCLin9(3,0,2):  61 y(0,3,2) - u(3,0,2) >= -0
MCLin10(3,0,2):  -96 y(0,3,2) + v(3,0,2) - u(3,0,2) >= -96
MCLinV(0,3,3):  x(0,3) - v(0,3,3) - x(3,3) = 4
MCLinV(3,0,3):  - x(0,3) - v(3,0,3) + x(3,3) = 7
MCLin1(0,3,3):  u(0,3,3) >= -0
MCLin2(0,3,3):  -83 y(3,0,3) - u(0,3,3) <= -0
MCLin3(0,3,3):  74 y(3,0,3) + v(0,3,3) - u(0,3,3) <= 74
MCLin4(0,3,3):  74 y(3,0,3) - u(0,3,3) >= -0
MCLin5(0,3,3):  -83 y(3,0,3) + v(0,3,3) - u(0,3,3) >= -83
MCLin6(3,0,3):  u(3,0,3) >= -0
MCLin7(3,0,3):  -85 y(0,3,3) - u(3,0,3) <= -0
MCLin8(3,0,3):  72 y(0,3,3) + v(3,0,3) - u(3,0,3) <= 72
MCLin9(3,0,3):  72 y(0,3,3) - u(3,0,3) >= -0
MCLin10(3,0,3):  -85 y(0,3,3) + v(3,0,3) - u(3,0,3) >= -85
MCLinV(1,2,0):  x(1,0) - v(1,2,0) - x(2,0) = 10
MCLinV(2,1,0):  - x(1,0) - v(2,1,0) + x(2,0) = 4
MCLin1(1,2,0):  u(1,2,0) >= -0
MCLin2(1,2,0):  -77 y(2,1,0) - u(1,2,0) <= -0
MCLin3(1,2,0):  75 y(2,1,0) + v(1,2,0) - u(1,2,0) <= 75
MCLin4(1,2,0):  75 y(2,1,0) - u(1,2,0) >= -0
MCLin5(1,2,0):  -77 y(2,1,0) + v(1,2,0) - u(1,2,0) >= -77
MCLin6(2,1,0):  u(2,1,0) >= -0
MCLin7(2,1,0):  -89 y(1,2,0) - u(2,1,0) <= -0
MCLin8(2,1,0):  63 y(1,2,0) + v(2,1,0) - u(2,1,0) <= 63
MCLin9(2,1,0):  63 y(1,2,0) - u(2,1,0) >= -0
MCLin10(2,1,0):  -89 y(1,2,0) + v(2,1,0) - u(2,1,0) >= -89
MCLinV(1,2,1):  x(1,1) - v(1,2,1) - x(2,1) = 3
MCLinV(2,1,1):  - x(1,1) - v(2,1,1) + x(2,1) = 9
MCLin1(1,2,1):  u(1,2,1) >= -0
MCLin2(1,2,1):  -71 y(2,1,1) - u(1,2,1) <= -0
MCLin3(1,2,1):  81 y(2,1,1) + v(1,2,1) - u(1,2,1) <= 81
MCLin4(1,2,1):  81 y(2,1,1) - u(1,2,1) >= -0
MCLin5(1,2,1):  -71 y(2,1,1) + v(1,2,1) - u(1,2,1) >= -71
MCLin6(2,1,1):  u(2,1,1) >= -0
MCLin7(2,1,1):  -93 y(1,2,1) - u(2,1,1) <= -0
MCLin8(2,1,1):  59 y(1,2,1) + v(2,1,1) - u(2,1,1) <= 59
MCLin9(2,1,1):  59 y(1,2,1) - u(2,1,1) >= -0
MCLin10(2,1,1):  -93 y(1,2,1) + v(2,1,1) - u(2,1,1) >= -93
MCLinV(1,2,2):  x(1,2) - v(1,2,2) - x(2,2) = 7
MCLinV(2,1,2):  - x(1,2) - v(2,1,2) + x(2,2) = 9
MCLin1(1,2,2):  u(1,2,2) >= -0
MCLin2(1,2,2):  -96 y(2,1,2) - u(1,2,2) <= -0
MCLin3(1,2,2):  56 y(2,1,2) + v(1,2,2) - u(1,2,2) <= 56
MCLin4(1,2,2):  56 y(2,1,2) - u(1,2,2) >= -0
MCLin5(1,2,2):  -96 y(2,1,2) + v(1,2,2) - u(1,2,2) >= -96
MCLin6(2,1,2):  u(2,1,2) >= -0
MCLin7(2,1,2):  -72 y(1,2,2) - u(2,1,2) <= -0
MCLin8(2,1,2):  80 y(1,2,2) + v(2,1,2) - u(2,1,2) <= 80
MCLin9(2,1,2):  80 y(1,2,2) - u(2,1,2) >= -0
MCLin10(2,1,2):  -72 y(1,2,2) + v(2,1,2) - u(2,1,2) >= -72
MCLinV(1,2,3):  x(1,3) - v(1,2,3) - x(2,3) = 7
MCLinV(2,1,3):  - x(1,3) - v(2,1,3) + x(2,3) = 5
MCLin1(1,2,3):  u(1,2,3) >= -0
MCLin2(1,2,3):  -90 y(2,1,3) - u(1,2,3) <= -0
MCLin3(1,2,3):  62 y(2,1,3) + v(1,2,3) - u(1,2,3) <= 62
MCLin4(1,2,3):  62 y(2,1,3) - u(1,2,3) >= -0
MCLin5(1,2,3):  -90 y(2,1,3) + v(1,2,3) - u(1,2,3) >= -90
MCLin6(2,1,3):  u(2,1,3) >= -0
MCLin7(2,1,3):  -74 y(1,2,3) - u(2,1,3) <= -0
MCLin8(2,1,3):  78 y(1,2,3) + v(2,1,3) - u(2,1,3) <= 78
MCLin9(2,1,3):  78 y(1,2,3) - u(2,1,3) >= -0
MCLin10(2,1,3):  -74 y(1,2,3) + v(2,1,3) - u(2,1,3) >= -74
MCLinV(1,3,0):  x(1,0) - v(1,3,0) - x(3,0) = 1
MCLinV(3,1,0):  - x(1,0) - v(3,1,0) + x(3,0) = 4
MCLin1(1,3,0):  u(1,3,0) >= -0
MCLin2(1,3,0):  -94 y(3,1,0) - u(1,3,0) <= -0
MCLin3(1,3,0):  72 y(3,1,0) + v(1,3,0) - u(1,3,0) <= 72
MCLin4(1,3,0):  72 y(3,1,0) - u(1,3,0) >= -0
MCLin5(1,3,0):  -94 y(3,1,0) + v(1,3,0) - u(1,3,0) >= -94
MCLin6(3,1,0):  u(3,1,0) >= -0
MCLin7(3,1,0):  -77 y(1,3,0) - u(3,1,0) <= -0
MCLin8(3,1,0):  89 y(1,3,0) + v(3,1,0) - u(3,1,0) <= 89
MCLin9(3,1,0):  89 y(1,3,0) - u(3,1,0) >= -0
MCLin10(3,1,0):  -77 y(1,3,0) + v(3,1,0) - u(3,1,0) >= -77
MCLinV(1,3,1):  x(1,1) - v(1,3,1) - x(3,1) = 7
MCLinV(3,1,1):  - x(1,1) - v(3,1,1) + x(3,1) = 9
MCLin1(1,3,1):  u(1,3,1) >= -0
MCLin2(1,3,1):  -79 y(3,1,1) - u(1,3,1) <= -0
MCLin3(1,3,1):  87 y(3,1,1) + v(1,3,1) - u(1,3,1) <= 87
MCLin4(1,3,1):  87 y(3,1,1) - u(1,3,1) >= -0
MCLin5(1,3,1):  -79 y(3,1,1) + v(1,3,1) - u(1,3,1) >= -79
MCLin6(3,1,1):  u(3,1,1) >= -0
MCLin7(3,1,1):  -103 y(1,3,1) - u(3,1,1) <= -0
MCLin8(3,1,1):  63 y(1,3,1) + v(3,1,1) - u(3,1,1) <= 63
MCLin9(3,1,1):  63 y(1,3,1) - u(3,1,1) >= -0
MCLin10(3,1,1):  -103 y(1,3,1) + v(3,1,1) - u(3,1,1) >= -103
MCLinV(1,3,2):  x(1,2) - v(1,3,2) - x(3,2) = 1
MCLinV(3,1,2):  - x(1,2) - v(3,1,2) + x(3,2) = 9
MCLin1(1,3,2):  u(1,3,2) >= -0
MCLin2(1,3,2):  -98 y(3,1,2) - u(1,3,2) <= -0
MCLin3(1,3,2):  68 y(3,1,2) + v(1,3,2) - u(1,3,2) <= 68
MCLin4(1,3,2):  68 y(3,1,2) - u(1,3,2) >= -0
MCLin5(1,3,2):  -98 y(3,1,2) + v(1,3,2) - u(1,3,2) >= -98
MCLin6(3,1,2):  u(3,1,2) >= -0
MCLin7(3,1,2):  -78 y(1,3,2) - u(3,1,2) <= -0
MCLin8(3,1,2):  88 y(1,3,2) + v(3,1,2) - u(3,1,2) <= 88
MCLin9(3,1,2):  88 y(1,3,2) - u(3,1,2) >= -0
MCLin10(3,1,2):  -78 y(1,3,2) + v(3,1,2) - u(3,1,2) >= -78
MCLinV(1,3,3):  x(1,3) - v(1,3,3) - x(3,3) = 4
MCLinV(3,1,3):  - x(1,3) - v(3,1,3) + x(3,3) = 5
MCLin1(1,3,3):  u(1,3,3) >= -0
MCLin2(1,3,3):  -89 y(3,1,3) - u(1,3,3) <= -0
MCLin3(1,3,3):  77 y(3,1,3) + v(1,3,3) - u(1,3,3) <= 77
MCLin4(1,3,3):  77 y(3,1,3) - u(1,3,3) >= -0
MCLin5(1,3,3):  -89 y(3,1,3) + v(1,3,3) - u(1,3,3) >= -89
MCLin6(3,1,3):  u(3,1,3) >= -0
MCLin7(3,1,3):  -86 y(1,3,3) - u(3,1,3) <= -0
MCLin8(3,1,3):  80 y(1,3,3) + v(3,1,3) - u(3,1,3) <= 80
MCLin9(3,1,3):  80 y(1,3,3) - u(3,1,3) >= -0
MCLin10(3,1,3):  -86 y(1,3,3) + v(3,1,3) - u(3,1,3) >= -86
MCLinV(2,3,0):  x(2,0) - v(2,3,0) - x(3,0) = 1
MCLinV(3,2,0):  - x(2,0) - v(3,2,0) + x(3,0) = 10
MCLin1(2,3,0):  u(2,3,0) >= -0
MCLin2(2,3,0):  -103 y(3,2,0) - u(2,3,0) <= -0
MCLin3(2,3,0):  63 y(3,2,0) + v(2,3,0) - u(2,3,0) <= 63
MCLin4(2,3,0):  63 y(3,2,0) - u(2,3,0) >= -0
MCLin5(2,3,0):  -103 y(3,2,0) + v(2,3,0) - u(2,3,0) >= -103
MCLin6(3,2,0):  u(3,2,0) >= -0
MCLin7(3,2,0):  -74 y(2,3,0) - u(3,2,0) <= -0
MCLin8(3,2,0):  92 y(2,3,0) + v(3,2,0) - u(3,2,0) <= 92
MCLin9(3,2,0):  92 y(2,3,0) - u(3,2,0) >= -0
MCLin10(3,2,0):  -74 y(2,3,0) + v(3,2,0) - u(3,2,0) >= -74
MCLinV(2,3,1):  x(2,1) - v(2,3,1) - x(3,1) = 7
MCLinV(3,2,1):  - x(2,1) - v(3,2,1) + x(3,1) = 3
MCLin1(2,3,1):  u(2,3,1) >= -0
MCLin2(2,3,1):  -87 y(3,2,1) - u(2,3,1) <= -0
MCLin3(2,3,1):  79 y(3,2,1) + v(2,3,1) - u(2,3,1) <= 79
MCLin4(2,3,1):  79 y(3,2,1) - u(2,3,1) >= -0
MCLin5(2,3,1):  -87 y(3,2,1) + v(2,3,1) - u(2,3,1) >= -87
MCLin6(3,2,1):  u(3,2,1) >= -0
MCLin7(3,2,1):  -89 y(2,3,1) - u(3,2,1) <= -0
MCLin8(3,2,1):  77 y(2,3,1) + v(3,2,1) - u(3,2,1) <= 77
MCLin9(3,2,1):  77 y(2,3,1) - u(3,2,1) >= -0
MCLin10(3,2,1):  -89 y(2,3,1) + v(3,2,1) - u(3,2,1) >= -89
MCLinV(2,3,2):  x(2,2) - v(2,3,2) - x(3,2) = 1
MCLinV(3,2,2):  - x(2,2) - v(3,2,2) + x(3,2) = 7
MCLin1(2,3,2):  u(2,3,2) >= -0
MCLin2(2,3,2):  -85 y(3,2,2) - u(2,3,2) <= -0
MCLin3(2,3,2):  81 y(3,2,2) + v(2,3,2) - u(2,3,2) <= 81
MCLin4(2,3,2):  81 y(3,2,2) - u(2,3,2) >= -0
MCLin5(2,3,2):  -85 y(3,2,2) + v(2,3,2) - u(2,3,2) >= -85
MCLin6(3,2,2):  u(3,2,2) >= -0
MCLin7(3,2,2):  -89 y(2,3,2) - u(3,2,2) <= -0
MCLin8(3,2,2):  77 y(2,3,2) + v(3,2,2) - u(3,2,2) <= 77
MCLin9(3,2,2):  77 y(2,3,2) - u(3,2,2) >= -0
MCLin10(3,2,2):  -89 y(2,3,2) + v(3,2,2) - u(3,2,2) >= -89
MCLinV(2,3,3):  x(2,3) - v(2,3,3) - x(3,3) = 4
MCLinV(3,2,3):  - x(2,3) - v(3,2,3) + x(3,3) = 7
MCLin1(2,3,3):  u(2,3,3) >= -0
MCLin2(2,3,3):  -82 y(3,2,3) - u(2,3,3) <= -0
MCLin3(2,3,3):  84 y(3,2,3) + v(2,3,3) - u(2,3,3) <= 84
MCLin4(2,3,3):  84 y(3,2,3) - u(2,3,3) >= -0
MCLin5(2,3,3):  -82 y(3,2,3) + v(2,3,3) - u(2,3,3) >= -82
MCLin6(3,2,3):  u(3,2,3) >= -0
MCLin7(3,2,3):  -95 y(2,3,3) - u(3,2,3) <= -0
MCLin8(3,2,3):  71 y(2,3,3) + v(3,2,3) - u(3,2,3) <= 71
MCLin9(3,2,3):  71 y(2,3,3) - u(3,2,3) >= -0
MCLin10(3,2,3):  -95 y(2,3,3) + v(3,2,3) - u(3,2,3) >= -95
makespan(0):  C - x(0,2) >= 10
makespan(1):  C - x(1,1) >= 9
makespan(2):  C - x(2,3) >= 7
makespan(3):  C - x(3,0) >= 1
Bounds
 0 <= C <= 103
 0 <= x(0,0) <= 67
 0 <= y(0,1,0) <= 1
 0 <= y(1,0,0) <= 1
 -89 <= v(0,1,0) <= 54
 -67 <= v(1,0,0) <= 76
 -1030 <= u(0,1,0)
 -1030 <= u(1,0,0)
 0 <= y(0,2,0) <= 1
 0 <= y(2,0,0) <= 1
 -86 <= v(0,2,0) <= 57
 -76 <= v(2,0,0) <= 67
 -1030 <= u(0,2,0)
 -1030 <= u(2,0,0)
 0 <= y(0,3,0) <= 1
 0 <= y(3,0,0) <= 1
 -103 <= v(0,3,0) <= 54
 -64 <= v(3,0,0) <= 93
 -1030 <= u(0,3,0)
 -1030 <= u(3,0,0)
 9 <= x(1,0) <= 85
 0 <= y(1,2,0) <= 1
 0 <= y(2,1,0) <= 1
 -77 <= v(1,2,0) <= 75
 -89 <= v(2,1,0) <= 63
 -1030 <= u(1,2,0)
 -1030 <= u(2,1,0)
 0 <= y(1,3,0) <= 1
 0 <= y(3,1,0) <= 1
 -94 <= v(1,3,0) <= 72
 -77 <= v(3,1,0) <= 89
 -1030 <= u(1,3,0)
 -1030 <= u(3,1,0)
 0 <= x(2,0) <= 76
 0 <= y(2,3,0) <= 1
 0 <= y(3,2,0) <= 1
 -103 <= v(2,3,0) <= 63
 -74 <= v(3,2,0) <= 92
 -1030 <= u(2,3,0)
 -1030 <= u(3,2,0)
 12 <= x(3,0) <= 102
 9 <= x(0,1) <= 76
 0 <= y(0,1,1) <= 1
 0 <= y(1,0,1) <= 1
 -94 <= v(0,1,1) <= 49
 -68 <= v(1,0,1) <= 75
 -1030 <= u(0,1,1)
 -1030 <= u(1,0,1)
 0 <= y(0,2,1) <= 1
 0 <= y(2,0,1) <= 1
 -80 <= v(0,2,1) <= 63
 -76 <= v(2,0,1) <= 67
 -1030 <= u(0,2,1)
 -1030 <= u(2,0,1)
 0 <= y(0,3,1) <= 1
 0 <= y(3,0,1) <= 1
 -88 <= v(0,3,1) <= 69
 -86 <= v(3,0,1) <= 71
 -1030 <= u(0,3,1)
 -1030 <= u(3,0,1)
 18 <= x(1,1) <= 94
 0 <= y(1,2,1) <= 1
 0 <= y(2,1,1) <= 1
 -71 <= v(1,2,1) <= 81
 -93 <= v(2,1,1) <= 59
 -1030 <= u(1,2,1)
 -1030 <= u(2,1,1)
 0 <= y(1,3,1) <= 1
 0 <= y(3,1,1) <= 1
 -79 <= v(1,3,1) <= 87
 -103 <= v(3,1,1) <= 63
 -1030 <= u(1,3,1)
 -1030 <= u(3,1,1)
 10 <= x(2,1) <= 86
 0 <= y(2,3,1) <= 1
 0 <= y(3,2,1) <= 1
 -87 <= v(2,3,1) <= 79
 -89 <= v(3,2,1) <= 77
 -1030 <= u(2,3,1)
 -1030 <= u(3,2,1)
 0 <= x(3,1) <= 90
 26 <= x(0,2) <= 93
 0 <= y(0,1,2) <= 1
 0 <= y(1,0,2) <= 1
 -59 <= v(0,1,2) <= 84
 -103 <= v(1,0,2) <= 40
 -1030 <= u(0,1,2)
 -1030 <= u(1,0,2)
 0 <= y(0,2,2) <= 1
 0 <= y(2,0,2) <= 1
 -70 <= v(0,2,2) <= 73
 -90 <= v(2,0,2) <= 53
 -1030 <= u(0,2,2)
 -1030 <= u(2,0,2)
 0 <= y(0,3,2) <= 1
 0 <= y(3,0,2) <= 1
 -72 <= v(0,3,2) <= 85
 -96 <= v(3,0,2) <= 61
 -1030 <= u(0,3,2)
 -1030 <= u(3,0,2)
 0 <= x(1,2) <= 76
 0 <= y(1,2,2) <= 1
 0 <= y(2,1,2) <= 1
 -96 <= v(1,2,2) <= 56
 -72 <= v(2,1,2) <= 80
 -1030 <= u(1,2,2)
 -1030 <= u(2,1,2)
 0 <= y(1,3,2) <= 1
 0 <= y(3,1,2) <= 1
 -98 <= v(1,3,2) <= 68
 -78 <= v(3,1,2) <= 88
 -1030 <= u(1,3,2)
 -1030 <= u(3,1,2)
 13 <= x(2,2) <= 89
 0 <= y(2,3,2) <= 1
 0 <= y(3,2,2) <= 1
 -85 <= v(2,3,2) <= 81
 -89 <= v(3,2,2) <= 77
 -1030 <= u(2,3,2)
 -1030 <= u(3,2,2)
 7 <= x(3,2) <= 97
 19 <= x(0,3) <= 86
 0 <= y(0,1,3) <= 1
 0 <= y(1,0,3) <= 1
 -75 <= v(0,1,3) <= 68
 -80 <= v(1,0,3) <= 63
 -1030 <= u(0,1,3)
 -1030 <= u(1,0,3)
 0 <= y(0,2,3) <= 1
 0 <= y(2,0,3) <= 1
 -84 <= v(0,2,3) <= 59
 -73 <= v(2,0,3) <= 70
 -1030 <= u(0,2,3)
 -1030 <= u(2,0,3)
 0 <= y(0,3,3) <= 1
 0 <= y(3,0,3) <= 1
 -83 <= v(0,3,3) <= 74
 -85 <= v(3,0,3) <= 72
 -1030 <= u(0,3,3)
 -1030 <= u(3,0,3)
 13 <= x(1,3) <= 89
 0 <= y(1,2,3) <= 1
 0 <= y(2,1,3) <= 1
 -90 <= v(1,2,3) <= 62
 -74 <= v(2,1,3) <= 78
 -1030 <= u(1,2,3)
 -1030 <= u(2,1,3)
 0 <= y(1,3,3) <= 1
 0 <= y(3,1,3) <= 1
 -89 <= v(1,3,3) <= 77
 -86 <= v(3,1,3) <= 80
 -1030 <= u(1,3,3)
 -1030 <= u(3,1,3)
 20 <= x(2,3) <= 96
 0 <= y(2,3,3) <= 1
 0 <= y(3,2,3) <= 1
 -82 <= v(2,3,3) <= 84
 -95 <= v(3,2,3) <= 71
 -1030 <= u(2,3,3)
 -1030 <= u(3,2,3)
 8 <= x(3,3) <= 98
Integers
C x(0,0) y(0,1,0) y(1,0,0) v(0,1,0) v(1,0,0) u(0,1,0) u(1,0,0) y(0,2,0) y(2,0,0) 
v(0,2,0) v(2,0,0) u(0,2,0) u(2,0,0) y(0,3,0) y(3,0,0) v(0,3,0) v(3,0,0) u(0,3,0) u(3,0,0) 
x(1,0) y(1,2,0) y(2,1,0) v(1,2,0) v(2,1,0) u(1,2,0) u(2,1,0) y(1,3,0) y(3,1,0) v(1,3,0) 
v(3,1,0) u(1,3,0) u(3,1,0) x(2,0) y(2,3,0) y(3,2,0) v(2,3,0) v(3,2,0) u(2,3,0) u(3,2,0) 
x(3,0) x(0,1) y(0,1,1) y(1,0,1) v(0,1,1) v(1,0,1) u(0,1,1) u(1,0,1) y(0,2,1) y(2,0,1) 
v(0,2,1) v(2,0,1) u(0,2,1) u(2,0,1) y(0,3,1) y(3,0,1) v(0,3,1) v(3,0,1) u(0,3,1) u(3,0,1) 
x(1,1) y(1,2,1) y(2,1,1) v(1,2,1) v(2,1,1) u(1,2,1) u(2,1,1) y(1,3,1) y(3,1,1) v(1,3,1) 
v(3,1,1) u(1,3,1) u(3,1,1) x(2,1) y(2,3,1) y(3,2,1) v(2,3,1) v(3,2,1) u(2,3,1) u(3,2,1) 
x(3,1) x(0,2) y(0,1,2) y(1,0,2) v(0,1,2) v(1,0,2) u(0,1,2) u(1,0,2) y(0,2,2) y(2,0,2) 
v(0,2,2) v(2,0,2) u(0,2,2) u(2,0,2) y(0,3,2) y(3,0,2) v(0,3,2) v(3,0,2) u(0,3,2) u(3,0,2) 
x(1,2) y(1,2,2) y(2,1,2) v(1,2,2) v(2,1,2) u(1,2,2) u(2,1,2) y(1,3,2) y(3,1,2) v(1,3,2) 
v(3,1,2) u(1,3,2) u(3,1,2) x(2,2) y(2,3,2) y(3,2,2) v(2,3,2) v(3,2,2) u(2,3,2) u(3,2,2) 
x(3,2) x(0,3) y(0,1,3) y(1,0,3) v(0,1,3) v(1,0,3) u(0,1,3) u(1,0,3) y(0,2,3) y(2,0,3) 
v(0,2,3) v(2,0,3) u(0,2,3) u(2,0,3) y(0,3,3) y(3,0,3) v(0,3,3) v(3,0,3) u(0,3,3) u(3,0,3) 
x(1,3) y(1,2,3) y(2,1,3) v(1,2,3) v(2,1,3) u(1,2,3) u(2,1,3) y(1,3,3) y(3,1,3) v(1,3,3) 
v(3,1,3) u(1,3,3) u(3,1,3) x(2,3) y(2,3,3) y(3,2,3) v(2,3,3) v(3,2,3) u(2,3,3) u(3,2,3) 
x(3,3) 
End
